138337
98, 106, 97, 8, 9, 92, 23, 12, 93, 89, 80, 57, 83, 34, 74, 102, 24, 76, 58, 28, 27, 10, 59, 66, 44, 87, 1, 43, 79, 91, 60, 96, 78, 3, 94, 70, 101, 105, 38, 104, 67, 95, 54, 71, 36, 85, 49, 18, 7, 53, 84, 33, 2, 62, 22, 21, 40, 56, 20, 16, 64, 90, 77, 81, 42, 19, 99, 68, 50, 26, 14, 47, 61, 15, 4, 103, 35, 75, 11, 41, 48, 73, 39, 37, 17, 72, 45, 25, 86, 46, 30, 5, 52, 65, 31, 32, 63, 51, 100, 82, 6, 69, 88, 13, 55, 29
